benchmarks/INST_36x36/15/inst36x36_15_59.txt
6
1
-1	20	-1	-1	-1	-1	-1	-1	-1	-1	-1	-1	-1	-1	-1	-1	-1	-1	-1	-1	-1	-1	23	-1	-1	-1	-1	17	-1	-1	-1	-1	-1	33	-1	-1
-1	-1	-1	15	-1	-1	1	-1	-1	-1	-1	-1	-1	4	36	-1	32	-1	-1	-1	29	-1	-1	-1	-1	-1	-1	-1	-1	-1	-1	-1	-1	12	-1	-1
-1	-1	34	26	-1	-1	10	-1	24	-1	-1	-1	13	-1	-1	-1	-1	-1	-1	22	-1	-1	-1	-1	-1	-1	-1	-1	-1	-1	-1	-1	-1	-1	4	-1
-1	-1	-1	-1	-1	-1	-1	-1	-1	-1	-1	-1	-1	12	-1	-1	-1	-1	-1	-1	-1	-1	-1	-1	-1	-1	-1	-1	-1	-1	-1	-1	-1	23	-1	16
-1	-1	-1	18	22	31	33	-1	-1	-1	-1	-1	-1	-1	28	-1	-1	-1	-1	-1	-1	-1	-1	-1	6	-1	-1	-1	1	32	11	-1	34	-1	-1	-1
-1	-1	11	-1	-1	-1	13	-1	-1	-1	23	-1	-1	34	15	-1	-1	-1	-1	-1	-1	-1	-1	9	-1	-1	-1	-1	-1	-1	-1	-1	-1	-1	-1	-1
-1	-1	-1	-1	5	3	-1	-1	-1	-1	-1	32	29	-1	-1	-1	-1	16	-1	-1	-1	-1	-1	20	-1	25	-1	-1	-1	-1	-1	-1	-1	-1	-1	-1
-1	-1	-1	-1	-1	-1	-1	-1	11	8	-1	-1	-1	-1	35	-1	-1	-1	-1	-1	-1	-1	-1	-1	-1	-1	-1	-1	-1	-1	-1	-1	-1	-1	-1	26
-1	-1	-1	-1	-1	-1	-1	-1	-1	34	-1	10	-1	30	-1	5	-1	-1	-1	17	-1	-1	-1	-1	-1	31	-1	-1	-1	-1	-1	-1	4	-1	-1	-1
-1	-1	-1	-1	-1	-1	-1	-1	-1	-1	-1	-1	-1	-1	-1	34	-1	-1	-1	-1	-1	-1	-1	-1	-1	-1	-1	-1	-1	-1	-1	-1	-1	-1	-1	-1
-1	-1	-1	-1	-1	-1	-1	-1	-1	-1	29	-1	-1	-1	-1	-1	22	-1	-1	-1	-1	-1	-1	-1	-1	-1	-1	-1	-1	-1	-1	-1	-1	-1	-1	-1
-1	-1	-1	-1	-1	-1	-1	-1	-1	-1	31	-1	-1	-1	-1	-1	-1	-1	-1	29	24	-1	35	-1	18	13	16	-1	-1	-1	-1	-1	-1	-1	-1	19
-1	-1	-1	-1	29	-1	-1	-1	-1	4	-1	-1	22	-1	-1	-1	7	-1	28	-1	-1	-1	-1	-1	-1	-1	-1	-1	-1	27	-1	26	-1	-1	-1	-1
-1	-1	-1	-1	-1	-1	-1	-1	-1	-1	-1	-1	-1	-1	-1	-1	-1	-1	-1	24	-1	-1	-1	-1	-1	-1	-1	-1	-1	-1	18	-1	-1	-1	-1	8
-1	-1	-1	-1	-1	-1	-1	-1	-1	-1	-1	-1	20	-1	-1	35	-1	-1	-1	-1	-1	-1	-1	-1	-1	10	-1	-1	-1	-1	-1	-1	-1	-1	-1	-1
-1	-1	-1	-1	20	-1	-1	-1	-1	-1	-1	-1	36	-1	-1	-1	-1	-1	-1	-1	-1	-1	-1	-1	-1	-1	-1	-1	-1	-1	-1	-1	-1	-1	-1	-1
-1	25	-1	-1	-1	-1	-1	-1	16	-1	-1	-1	-1	-1	-1	-1	-1	-1	-1	-1	-1	-1	-1	-1	-1	-1	-1	-1	-1	-1	-1	-1	-1	-1	-1	-1
-1	11	-1	1	-1	13	-1	-1	-1	-1	-1	-1	-1	-1	14	-1	-1	-1	19	-1	-1	-1	-1	-1	12	-1	-1	-1	-1	18	-1	-1	-1	16	-1	-1
-1	-1	4	-1	18	-1	-1	-1	-1	-1	-1	-1	-1	1	-1	-1	-1	-1	-1	-1	-1	-1	-1	-1	-1	-1	-1	-1	-1	-1	-1	-1	-1	-1	-1	-1
34	-1	-1	-1	-1	7	-1	-1	-1	-1	-1	-1	-1	6	-1	22	-1	-1	-1	-1	26	-1	-1	-1	-1	-1	-1	-1	-1	-1	-1	-1	19	-1	-1	-1
-1	35	1	-1	-1	-1	-1	-1	-1	-1	-1	5	-1	-1	24	29	-1	-1	-1	-1	-1	-1	-1	-1	-1	-1	25	-1	-1	-1	-1	-1	-1	8	28	36
9	-1	-1	-1	-1	-1	-1	-1	-1	-1	-1	-1	2	32	-1	-1	16	-1	-1	14	18	-1	-1	-1	-1	-1	-1	-1	-1	5	-1	-1	-1	-1	-1	-1
-1	-1	33	-1	36	-1	-1	24	-1	-1	-1	-1	-1	-1	-1	-1	-1	-1	-1	-1	-1	-1	-1	35	-1	-1	-1	1	-1	-1	32	-1	-1	-1	-1	-1
-1	-1	-1	-1	-1	-1	-1	-1	-1	-1	-1	34	-1	-1	-1	-1	30	-1	-1	-1	-1	-1	-1	-1	-1	-1	11	-1	13	-1	-1	-1	29	-1	5	-1
-1	-1	-1	-1	33	23	-1	-1	-1	-1	-1	-1	-1	29	-1	-1	-1	-1	36	-1	-1	-1	-1	-1	-1	-1	4	-1	8	12	-1	-1	5	-1	-1	-1
-1	-1	-1	27	-1	-1	-1	-1	-1	10	-1	-1	-1	-1	-1	-1	-1	-1	-1	-1	-1	13	2	-1	-1	-1	-1	-1	-1	-1	-1	-1	-1	-1	-1	-1
-1	-1	17	-1	4	-1	-1	-1	29	27	-1	-1	-1	-1	-1	23	-1	-1	34	-1	-1	16	-1	-1	-1	-1	-1	-1	-1	-1	-1	-1	-1	32	-1	-1
-1	28	26	-1	-1	-1	-1	-1	-1	-1	-1	-1	-1	-1	-1	21	10	-1	-1	31	-1	-1	-1	-1	32	-1	-1	-1	-1	-1	-1	-1	-1	-1	7	-1
-1	14	-1	-1	-1	-1	-1	-1	5	-1	-1	-1	-1	-1	-1	-1	-1	-1	-1	-1	-1	-1	-1	28	-1	-1	-1	-1	20	-1	-1	-1	-1	25	-1	-1
-1	-1	-1	-1	-1	11	-1	-1	-1	-1	-1	-1	16	-1	-1	-1	-1	-1	-1	-1	-1	-1	-1	-1	-1	-1	-1	35	-1	-1	-1	-1	-1	-1	-1	-1
29	-1	-1	-1	-1	-1	-1	35	-1	-1	-1	-1	-1	-1	-1	18	-1	22	-1	-1	14	-1	-1	-1	31	-1	32	-1	-1	-1	-1	-1	-1	-1	-1	-1
-1	3	-1	2	23	-1	-1	-1	-1	-1	-1	-1	-1	-1	-1	-1	-1	-1	35	-1	-1	-1	-1	-1	-1	-1	-1	-1	-1	-1	-1	-1	-1	-1	15	28
-1	-1	25	22	-1	-1	6	-1	-1	-1	-1	-1	-1	-1	-1	-1	-1	-1	-1	20	-1	-1	21	-1	8	-1	-1	-1	-1	-1	-1	-1	-1	-1	-1	-1
-1	-1	5	-1	-1	-1	-1	-1	-1	-1	-1	-1	-1	-1	-1	15	36	-1	-1	-1	-1	-1	-1	-1	-1	-1	18	-1	-1	-1	-1	-1	-1	31	-1	-1
-1	-1	-1	-1	-1	14	-1	34	-1	-1	-1	-1	-1	-1	-1	-1	-1	-1	8	-1	-1	-1	-1	-1	36	-1	-1	-1	-1	-1	-1	35	-1	18	-1	-1
-1	-1	-1	-1	-1	-1	-1	-1	-1	-1	-1	-1	-1	-1	-1	-1	-1	-1	-1	-1	-1	-1	-1	-1	-1	-1	-1	-1	-1	-1	-1	-1	-1	-1	-1	3
